120
150
75
75
49
72
32
62
20
51
39
60
71
76
36
94
96
74
32
63
58
59
61
56
54
44
61
58
31
59
91
29
32
54
64
72
20
58
94
86
64
72
77
56
29
42
76
96
54
39
44
84
56
100
36
52
97
50
51
32
84
87
50
86
70
50
26
64
68
81
63
39
73
47
32
30
32
26
92
28
30
56
32
61
29
54
96
31
75
44
35
76
97
54
96
51
87
44
50
26
87
96
74
64
86
56
54
49
47
86
64
74
76
64
42
54
58
36
56
44
74
76
